\ LP format - for model browsing. Use MPS format to capture full model detail.
Minimize
  - 5 x0 + 2 x1 - x2 + 3 x3
Subject To
 constr(0): 2 x0 + 3 x1 + 2 x2 + x3 <= 16
 constr(1): 5 x0 + x1 + 2 x2 + 4 x3 <= 18
Bounds
 x0 <= 4
 x1 <= 4
 x2 <= 1
 x3 <= 5
End
